backend/data/formal_work/fifo_buggy_fail/fifo_buggy_fail_bmc/model/design_smt2.smt2
; SMT-LIBv2 description generated by Yosys 0.63+184 (git sha1 240439bdb-dirty, aarch64-apple-darwin23.5-clang++ 18.1.8 -fPIC -O3)
; yosys-smt2-module fifo_formal_checker
(declare-sort |fifo_formal_checker_s| 0)
(declare-fun |fifo_formal_checker_is| (|fifo_formal_checker_s|) Bool)
; yosys-smt2-witness {"offset": 0, "path": ["$auto$async2sync.cc:116:execute$121"], "smtname": 0, "smtoffset": 0, "type": "reg", "width": 1}
(declare-fun |fifo_formal_checker#0| (|fifo_formal_checker_s|) (_ BitVec 1)) ; $auto$async2sync.cc:116:execute$121
; yosys-smt2-register $auto$async2sync.cc:116:execute$121 1
(define-fun |fifo_formal_checker_n $auto$async2sync.cc:116:execute$121| ((state |fifo_formal_checker_s|)) Bool (= ((_ extract 0 0) (|fifo_formal_checker#0| state)) #b1))
(declare-fun |fifo_formal_checker#1| (|fifo_formal_checker_s|) (_ BitVec 1)) ; \rst_n
(define-fun |fifo_formal_checker#2| ((state |fifo_formal_checker_s|)) (_ BitVec 1) (ite (= ((_ extract 0 0) (|fifo_formal_checker#1| state)) #b1) #b1 #b0)) ; \assert_count_bounded_EN
; yosys-smt2-wire assert_count_bounded_EN 1
(define-fun |fifo_formal_checker_n assert_count_bounded_EN| ((state |fifo_formal_checker_s|)) Bool (= ((_ extract 0 0) (|fifo_formal_checker#2| state)) #b1))
(declare-fun |fifo_formal_checker#3| (|fifo_formal_checker_s|) Bool) ; \clk
; yosys-smt2-input clk 1
; yosys-smt2-wire clk 1
; yosys-smt2-clock clk posedge
; yosys-smt2-witness {"offset": 0, "path": ["\\clk"], "smtname": "clk", "smtoffset": 0, "type": "posedge", "width": 1}
; yosys-smt2-witness {"offset": 0, "path": ["\\clk"], "smtname": "clk", "smtoffset": 0, "type": "input", "width": 1}
(define-fun |fifo_formal_checker_n clk| ((state |fifo_formal_checker_s|)) Bool (|fifo_formal_checker#3| state))
(declare-fun |fifo_formal_checker#4| (|fifo_formal_checker_s|) (_ BitVec 4)) ; \count
; yosys-smt2-input count 4
; yosys-smt2-wire count 4
; yosys-smt2-witness {"offset": 0, "path": ["\\count"], "smtname": "count", "smtoffset": 0, "type": "input", "width": 4}
(define-fun |fifo_formal_checker_n count| ((state |fifo_formal_checker_s|)) (_ BitVec 4) (|fifo_formal_checker#4| state))
; yosys-smt2-witness {"offset": 0, "path": ["$auto$async2sync.cc:107:execute$117"], "smtname": 5, "smtoffset": 0, "type": "reg", "width": 1}
(declare-fun |fifo_formal_checker#5| (|fifo_formal_checker_s|) (_ BitVec 1)) ; $auto$async2sync.cc:107:execute$117
; yosys-smt2-register $auto$async2sync.cc:107:execute$117 1
(define-fun |fifo_formal_checker_n $auto$async2sync.cc:107:execute$117| ((state |fifo_formal_checker_s|)) Bool (= ((_ extract 0 0) (|fifo_formal_checker#5| state)) #b1))
(declare-fun |fifo_formal_checker#6| (|fifo_formal_checker_s|) Bool) ; \empty
; yosys-smt2-input empty 1
; yosys-smt2-wire empty 1
; yosys-smt2-witness {"offset": 0, "path": ["\\empty"], "smtname": "empty", "smtoffset": 0, "type": "input", "width": 1}
(define-fun |fifo_formal_checker_n empty| ((state |fifo_formal_checker_s|)) Bool (|fifo_formal_checker#6| state))
(declare-fun |fifo_formal_checker#7| (|fifo_formal_checker_s|) Bool) ; \full
; yosys-smt2-input full 1
; yosys-smt2-wire full 1
; yosys-smt2-witness {"offset": 0, "path": ["\\full"], "smtname": "full", "smtoffset": 0, "type": "input", "width": 1}
(define-fun |fifo_formal_checker_n full| ((state |fifo_formal_checker_s|)) Bool (|fifo_formal_checker#7| state))
(declare-fun |fifo_formal_checker#8| (|fifo_formal_checker_s|) Bool) ; \rd_en
; yosys-smt2-input rd_en 1
; yosys-smt2-wire rd_en 1
; yosys-smt2-witness {"offset": 0, "path": ["\\rd_en"], "smtname": "rd_en", "smtoffset": 0, "type": "input", "width": 1}
(define-fun |fifo_formal_checker_n rd_en| ((state |fifo_formal_checker_s|)) Bool (|fifo_formal_checker#8| state))
; yosys-smt2-input rst_n 1
; yosys-smt2-wire rst_n 1
; yosys-smt2-witness {"offset": 0, "path": ["\\rst_n"], "smtname": "rst_n", "smtoffset": 0, "type": "input", "width": 1}
(define-fun |fifo_formal_checker_n rst_n| ((state |fifo_formal_checker_s|)) Bool (= ((_ extract 0 0) (|fifo_formal_checker#1| state)) #b1))
(declare-fun |fifo_formal_checker#9| (|fifo_formal_checker_s|) Bool) ; \wr_en
; yosys-smt2-input wr_en 1
; yosys-smt2-wire wr_en 1
; yosys-smt2-witness {"offset": 0, "path": ["\\wr_en"], "smtname": "wr_en", "smtoffset": 0, "type": "input", "width": 1}
(define-fun |fifo_formal_checker_n wr_en| ((state |fifo_formal_checker_s|)) Bool (|fifo_formal_checker#9| state))
(define-fun |fifo_formal_checker#10| ((state |fifo_formal_checker_s|)) (_ BitVec 1) (bvnot (ite (|fifo_formal_checker#3| state) #b1 #b0))) ; $auto$rtlil.cc:3255:Not$209
; yosys-smt2-assume 0 $auto$formalff.cc:987:execute$210
(define-fun |fifo_formal_checker_u 0| ((state |fifo_formal_checker_s|)) Bool (or (= ((_ extract 0 0) (|fifo_formal_checker#10| state)) #b1) (not true))) ; $auto$formalff.cc:987:execute$210
; yosys-smt2-assert 0 assert_count_bounded
(define-fun |fifo_formal_checker_a 0| ((state |fifo_formal_checker_s|)) Bool (or (= ((_ extract 0 0) (|fifo_formal_checker#0| state)) #b1) (not (= ((_ extract 0 0) (|fifo_formal_checker#5| state)) #b1)))) ; assert_count_bounded
(define-fun |fifo_formal_checker#11| ((state |fifo_formal_checker_s|)) Bool (bvule (|fifo_formal_checker#4| state) #b1000)) ; $le$fifo_formal_checker_monitor.sv:16$14_Y
(define-fun |fifo_formal_checker_a| ((state |fifo_formal_checker_s|)) Bool 
  (|fifo_formal_checker_a 0| state)
)
(define-fun |fifo_formal_checker_u| ((state |fifo_formal_checker_s|)) Bool 
  (|fifo_formal_checker_u 0| state)
)
(define-fun |fifo_formal_checker_i| ((state |fifo_formal_checker_s|)) Bool (and
  (= (= ((_ extract 0 0) (|fifo_formal_checker#0| state)) #b1) true) ; $auto$async2sync.cc:116:execute$121
  (= (= ((_ extract 0 0) (|fifo_formal_checker#5| state)) #b1) false) ; $auto$async2sync.cc:107:execute$117
))
(define-fun |fifo_formal_checker_h| ((state |fifo_formal_checker_s|)) Bool true)
(define-fun |fifo_formal_checker_t| ((state |fifo_formal_checker_s|) (next_state |fifo_formal_checker_s|)) Bool (and
  (= (|fifo_formal_checker#2| state) (|fifo_formal_checker#5| next_state)) ; $auto$async2sync.cc:110:execute$119 $auto$async2sync.cc:107:execute$117
  (= (ite (|fifo_formal_checker#11| state) #b1 #b0) (|fifo_formal_checker#0| next_state)) ; $auto$async2sync.cc:118:execute$122 $auto$async2sync.cc:116:execute$121
)) ; end of module fifo_formal_checker
; yosys-smt2-module sync_fifo
(declare-sort |sync_fifo_s| 0)
(declare-fun |sync_fifo_is| (|sync_fifo_s|) Bool)
; yosys-smt2-anyseq sync_fifo#0 3 $auto$setundef.cc:550:execute$202
; yosys-smt2-witness {"offset": 0, "path": ["\\_witness_", "\\anyseq_auto_setundef_cc_550_execute_202"], "smtname": 0, "smtoffset": 0, "type": "seq", "width": 3}
(declare-fun |sync_fifo#0| (|sync_fifo_s|) (_ BitVec 3)) ; \_witness_.anyseq_auto_setundef_cc_550_execute_202
; yosys-smt2-wire _witness_.anyseq_auto_setundef_cc_550_execute_202 3
(define-fun |sync_fifo_n _witness_.anyseq_auto_setundef_cc_550_execute_202| ((state |sync_fifo_s|)) (_ BitVec 3) (|sync_fifo#0| state))
; yosys-smt2-anyseq sync_fifo#1 8 $auto$setundef.cc:550:execute$200
; yosys-smt2-witness {"offset": 0, "path": ["\\_witness_", "\\anyseq_auto_setundef_cc_550_execute_200"], "smtname": 1, "smtoffset": 0, "type": "seq", "width": 8}
(declare-fun |sync_fifo#1| (|sync_fifo_s|) (_ BitVec 8)) ; \_witness_.anyseq_auto_setundef_cc_550_execute_200
; yosys-smt2-wire _witness_.anyseq_auto_setundef_cc_550_execute_200 8
(define-fun |sync_fifo_n _witness_.anyseq_auto_setundef_cc_550_execute_200| ((state |sync_fifo_s|)) (_ BitVec 8) (|sync_fifo#1| state))
; yosys-smt2-anyseq sync_fifo#2 3 $auto$setundef.cc:550:execute$206
; yosys-smt2-witness {"offset": 0, "path": ["\\_witness_", "\\anyseq_auto_setundef_cc_550_execute_206"], "smtname": 2, "smtoffset": 0, "type": "seq", "width": 3}
(declare-fun |sync_fifo#2| (|sync_fifo_s|) (_ BitVec 3)) ; \_witness_.anyseq_auto_setundef_cc_550_execute_206
; yosys-smt2-wire _witness_.anyseq_auto_setundef_cc_550_execute_206 3
(define-fun |sync_fifo_n _witness_.anyseq_auto_setundef_cc_550_execute_206| ((state |sync_fifo_s|)) (_ BitVec 3) (|sync_fifo#2| state))
; yosys-smt2-anyseq sync_fifo#3 8 $auto$setundef.cc:550:execute$204
; yosys-smt2-witness {"offset": 0, "path": ["\\_witness_", "\\anyseq_auto_setundef_cc_550_execute_204"], "smtname": 3, "smtoffset": 0, "type": "seq", "width": 8}
(declare-fun |sync_fifo#3| (|sync_fifo_s|) (_ BitVec 8)) ; \_witness_.anyseq_auto_setundef_cc_550_execute_204
; yosys-smt2-wire _witness_.anyseq_auto_setundef_cc_550_execute_204 8
(define-fun |sync_fifo_n _witness_.anyseq_auto_setundef_cc_550_execute_204| ((state |sync_fifo_s|)) (_ BitVec 8) (|sync_fifo#3| state))
(declare-fun |sync_fifo#4| (|sync_fifo_s|) Bool) ; \clk
; yosys-smt2-input clk 1
; yosys-smt2-wire clk 1
; yosys-smt2-clock clk posedge
; yosys-smt2-witness {"offset": 0, "path": ["\\clk"], "smtname": "clk", "smtoffset": 0, "type": "posedge", "width": 1}
; yosys-smt2-witness {"offset": 0, "path": ["\\clk"], "smtname": "clk", "smtoffset": 0, "type": "input", "width": 1}
(define-fun |sync_fifo_n clk| ((state |sync_fifo_s|)) Bool (|sync_fifo#4| state))
; yosys-smt2-anyinit sync_fifo#5 4 fifo_buggy_fail.sv:21.5-39.8
; yosys-smt2-witness {"offset": 0, "path": ["\\count"], "smtname": 5, "smtoffset": 0, "type": "init", "width": 4}
(declare-fun |sync_fifo#5| (|sync_fifo_s|) (_ BitVec 4)) ; \count
; yosys-smt2-output count 4
; yosys-smt2-register count 4
; yosys-smt2-wire count 4
(define-fun |sync_fifo_n count| ((state |sync_fifo_s|)) (_ BitVec 4) (|sync_fifo#5| state))
(define-fun |sync_fifo#6| ((state |sync_fifo_s|)) Bool (not (or  (= ((_ extract 0 0) (|sync_fifo#5| state)) #b1) (= ((_ extract 1 1) (|sync_fifo#5| state)) #b1) (= ((_ extract 2 2) (|sync_fifo#5| state)) #b1) (= ((_ extract 3 3) (|sync_fifo#5| state)) #b1)))) ; \empty
; yosys-smt2-output empty 1
; yosys-smt2-wire empty 1
(define-fun |sync_fifo_n empty| ((state |sync_fifo_s|)) Bool (|sync_fifo#6| state))
(define-fun |sync_fifo#7| ((state |sync_fifo_s|)) Bool (= (|sync_fifo#5| state) #b1000)) ; \full
; yosys-smt2-output full 1
; yosys-smt2-wire full 1
(define-fun |sync_fifo_n full| ((state |sync_fifo_s|)) Bool (|sync_fifo#7| state))
; yosys-smt2-anyinit sync_fifo#8 8 fifo_buggy_fail.sv:21.5-39.8
; yosys-smt2-witness {"offset": 0, "path": ["\\rd_data"], "smtname": 8, "smtoffset": 0, "type": "init", "width": 8}
(declare-fun |sync_fifo#8| (|sync_fifo_s|) (_ BitVec 8)) ; \rd_data
; yosys-smt2-output rd_data 8
; yosys-smt2-register rd_data 8
; yosys-smt2-wire rd_data 8
(define-fun |sync_fifo_n rd_data| ((state |sync_fifo_s|)) (_ BitVec 8) (|sync_fifo#8| state))
(declare-fun |sync_fifo#9| (|sync_fifo_s|) Bool) ; \rd_en
; yosys-smt2-input rd_en 1
; yosys-smt2-wire rd_en 1
; yosys-smt2-witness {"offset": 0, "path": ["\\rd_en"], "smtname": "rd_en", "smtoffset": 0, "type": "input", "width": 1}
(define-fun |sync_fifo_n rd_en| ((state |sync_fifo_s|)) Bool (|sync_fifo#9| state))
; yosys-smt2-anyinit sync_fifo#10 3 fifo_buggy_fail.sv:21.5-39.8
; yosys-smt2-witness {"offset": 0, "path": ["\\rd_ptr"], "smtname": 10, "smtoffset": 0, "type": "init", "width": 3}
(declare-fun |sync_fifo#10| (|sync_fifo_s|) (_ BitVec 3)) ; \rd_ptr
; yosys-smt2-register rd_ptr 3
; yosys-smt2-wire rd_ptr 3
(define-fun |sync_fifo_n rd_ptr| ((state |sync_fifo_s|)) (_ BitVec 3) (|sync_fifo#10| state))
(declare-fun |sync_fifo#11| (|sync_fifo_s|) Bool) ; \rst_n
; yosys-smt2-input rst_n 1
; yosys-smt2-wire rst_n 1
; yosys-smt2-witness {"offset": 0, "path": ["\\rst_n"], "smtname": "rst_n", "smtoffset": 0, "type": "input", "width": 1}
(define-fun |sync_fifo_n rst_n| ((state |sync_fifo_s|)) Bool (|sync_fifo#11| state))
(declare-fun |sync_fifo#12| (|sync_fifo_s|) (_ BitVec 8)) ; \wr_data
; yosys-smt2-input wr_data 8
; yosys-smt2-wire wr_data 8
; yosys-smt2-witness {"offset": 0, "path": ["\\wr_data"], "smtname": "wr_data", "smtoffset": 0, "type": "input", "width": 8}
(define-fun |sync_fifo_n wr_data| ((state |sync_fifo_s|)) (_ BitVec 8) (|sync_fifo#12| state))
(declare-fun |sync_fifo#13| (|sync_fifo_s|) Bool) ; \wr_en
; yosys-smt2-input wr_en 1
; yosys-smt2-wire wr_en 1
; yosys-smt2-witness {"offset": 0, "path": ["\\wr_en"], "smtname": "wr_en", "smtoffset": 0, "type": "input", "width": 1}
(define-fun |sync_fifo_n wr_en| ((state |sync_fifo_s|)) Bool (|sync_fifo#13| state))
; yosys-smt2-anyinit sync_fifo#14 3 fifo_buggy_fail.sv:21.5-39.8
; yosys-smt2-witness {"offset": 0, "path": ["\\wr_ptr"], "smtname": 14, "smtoffset": 0, "type": "init", "width": 3}
(declare-fun |sync_fifo#14| (|sync_fifo_s|) (_ BitVec 3)) ; \wr_ptr
; yosys-smt2-register wr_ptr 3
; yosys-smt2-wire wr_ptr 3
(define-fun |sync_fifo_n wr_ptr| ((state |sync_fifo_s|)) (_ BitVec 3) (|sync_fifo#14| state))
(define-fun |sync_fifo#15| ((state |sync_fifo_s|)) (_ BitVec 1) (bvnot (ite (|sync_fifo#4| state) #b1 #b0))) ; $auto$rtlil.cc:3255:Not$215
; yosys-smt2-assume 0 $auto$formalff.cc:987:execute$216
(define-fun |sync_fifo_u 0| ((state |sync_fifo_s|)) Bool (or (= ((_ extract 0 0) (|sync_fifo#15| state)) #b1) (not true))) ; $auto$formalff.cc:987:execute$216
(define-fun |sync_fifo#16| ((state |sync_fifo_s|)) (_ BitVec 3) (bvadd (|sync_fifo#14| state) #b001)) ; $add$fifo_buggy_fail.sv:30$35_Y
(define-fun |sync_fifo#17| ((state |sync_fifo_s|)) (_ BitVec 3) (ite (|sync_fifo#13| state) (|sync_fifo#16| state) (|sync_fifo#14| state))) ; $procmux$75_Y
(define-fun |sync_fifo#18| ((state |sync_fifo_s|)) (_ BitVec 3) (ite (|sync_fifo#11| state) (|sync_fifo#17| state) #b000)) ; $0\wr_ptr[2:0]
(define-fun |sync_fifo#19| ((state |sync_fifo_s|)) (_ BitVec 3) (bvadd (|sync_fifo#10| state) #b001)) ; $add$fifo_buggy_fail.sv:35$40_Y
(define-fun |sync_fifo#20| ((state |sync_fifo_s|)) Bool (not (or  (|sync_fifo#6| state) false))) ; $logic_not$fifo_buggy_fail.sv:33$37_Y
(define-fun |sync_fifo#21| ((state |sync_fifo_s|)) Bool (and (or  (|sync_fifo#9| state) false) (or  (|sync_fifo#20| state) false))) ; $logic_and$fifo_buggy_fail.sv:33$38_Y
(define-fun |sync_fifo#22| ((state |sync_fifo_s|)) (_ BitVec 3) (ite (|sync_fifo#21| state) (|sync_fifo#19| state) (|sync_fifo#10| state))) ; $procmux$69_Y
(define-fun |sync_fifo#23| ((state |sync_fifo_s|)) (_ BitVec 3) (ite (|sync_fifo#11| state) (|sync_fifo#22| state) #b000)) ; $0\rd_ptr[2:0]
; yosys-smt2-memory mem 3 8 1 1 sync
; yosys-smt2-witness {"path": ["\\mem"], "rom": false, "size": 8, "smtname": "mem", "statebv": false, "type": "mem", "uninitialized": [{"offset": 0, "width": 64}], "width": 8}
(declare-fun |sync_fifo#24#0| (|sync_fifo_s|) (Array (_ BitVec 3) (_ BitVec 8))) ; mem
(define-fun |sync_fifo_m mem| ((state |sync_fifo_s|)) (Array (_ BitVec 3) (_ BitVec 8)) (|sync_fifo#24#0| state))
(define-fun |sync_fifo_m:R0A mem| ((state |sync_fifo_s|)) (_ BitVec 3) (|sync_fifo#10| state)) ; \rd_ptr
(define-fun |sync_fifo#25| ((state |sync_fifo_s|)) (_ BitVec 8) (select (|sync_fifo#24#0| state) (|sync_fifo_m:R0A mem| state))) ; $memrd$\mem$fifo_buggy_fail.sv:34$39_DATA
(define-fun |sync_fifo_m:R0D mem| ((state |sync_fifo_s|)) (_ BitVec 8) (|sync_fifo#25| state))
(define-fun |sync_fifo#26| ((state |sync_fifo_s|)) (_ BitVec 8) (ite (|sync_fifo#21| state) (|sync_fifo#25| state) (|sync_fifo#8| state))) ; $procmux$88_Y
(define-fun |sync_fifo#27| ((state |sync_fifo_s|)) (_ BitVec 8) (ite (|sync_fifo#11| state) (|sync_fifo#26| state) (|sync_fifo#8| state))) ; $0\rd_data[7:0]
(define-fun |sync_fifo#28| ((state |sync_fifo_s|)) (_ BitVec 4) (bvadd (|sync_fifo#5| state) #b0001)) ; $add$fifo_buggy_fail.sv:31$36_Y
(define-fun |sync_fifo#29| ((state |sync_fifo_s|)) (_ BitVec 4) (ite (|sync_fifo#13| state) (|sync_fifo#28| state) (|sync_fifo#5| state))) ; $procmux$81_Y
(define-fun |sync_fifo#30| ((state |sync_fifo_s|)) (_ BitVec 4) (bvsub (|sync_fifo#5| state) #b0001)) ; $auto$wreduce.cc:514:run$115 [3:0]
(define-fun |sync_fifo#31| ((state |sync_fifo_s|)) (_ BitVec 4) (ite (|sync_fifo#21| state) (|sync_fifo#30| state) (|sync_fifo#29| state))) ; $procmux$83_Y
(define-fun |sync_fifo#32| ((state |sync_fifo_s|)) (_ BitVec 4) (ite (|sync_fifo#11| state) (|sync_fifo#31| state) #b0000)) ; $0\count[3:0]
(define-fun |sync_fifo#33| ((state |sync_fifo_s|)) (_ BitVec 3) (ite (|sync_fifo#13| state) (|sync_fifo#14| state) (|sync_fifo#0| state))) ; $2$memwr$\mem$fifo_buggy_fail.sv:29$21_ADDR[2:0]$32
(define-fun |sync_fifo#34| ((state |sync_fifo_s|)) (_ BitVec 3) (ite (|sync_fifo#11| state) (|sync_fifo#33| state) (|sync_fifo#2| state))) ; $0$memwr$\mem$fifo_buggy_fail.sv:29$21_ADDR[2:0]$25
(define-fun |sync_fifo#35| ((state |sync_fifo_s|)) (_ BitVec 8) (ite (|sync_fifo#13| state) (|sync_fifo#12| state) (|sync_fifo#1| state))) ; $2$memwr$\mem$fifo_buggy_fail.sv:29$21_DATA[7:0]$33
(define-fun |sync_fifo#36| ((state |sync_fifo_s|)) (_ BitVec 8) (ite (|sync_fifo#11| state) (|sync_fifo#35| state) (|sync_fifo#3| state))) ; $0$memwr$\mem$fifo_buggy_fail.sv:29$21_DATA[7:0]$26
(define-fun |sync_fifo#37| ((state |sync_fifo_s|)) (_ BitVec 1) (ite (|sync_fifo#13| state) #b1 #b0)) ; $2$memwr$\mem$fifo_buggy_fail.sv:29$21_EN[7:0]$34 [0]
(define-fun |sync_fifo#38| ((state |sync_fifo_s|)) (_ BitVec 1) (ite (|sync_fifo#11| state) (|sync_fifo#37| state) #b0)) ; $0$memwr$\mem$fifo_buggy_fail.sv:29$21_EN[7:0]$27 [0]
(define-fun |sync_fifo_m:W0A mem| ((state |sync_fifo_s|)) (_ BitVec 3) (|sync_fifo#34| state)) ; $0$memwr$\mem$fifo_buggy_fail.sv:29$21_ADDR[2:0]$25
(define-fun |sync_fifo_m:W0D mem| ((state |sync_fifo_s|)) (_ BitVec 8) (|sync_fifo#36| state)) ; $0$memwr$\mem$fifo_buggy_fail.sv:29$21_DATA[7:0]$26
(define-fun |sync_fifo_m:W0M mem| ((state |sync_fifo_s|)) (_ BitVec 8) (concat (|sync_fifo#38| state) (concat (|sync_fifo#38| state) (concat (|sync_fifo#38| state) (concat (|sync_fifo#38| state) (concat (|sync_fifo#38| state) (concat (|sync_fifo#38| state) (concat (|sync_fifo#38| state) (|sync_fifo#38| state))))))))) ; { $0$memwr$\mem$fifo_buggy_fail.sv:29$21_EN[7:0]$27 [0] $0$memwr$\mem$fifo_buggy_fail.sv:29$21_EN[7:0]$27 [0] $0$memwr$\mem$fifo_buggy_fail.sv:29$21_EN[7:0]$27 [0] $0$memwr$\mem$fifo_buggy_fail.sv:29$21_EN[7:0]$27 [0] $0$memwr$\mem$fifo_buggy_fail.sv:29$21_EN[7:0]$27 [0] $0$memwr$\mem$fifo_buggy_fail.sv:29$21_EN[7:0]$27 [0] $0$memwr$\mem$fifo_buggy_fail.sv:29$21_EN[7:0]$27 [0] $0$memwr$\mem$fifo_buggy_fail.sv:29$21_EN[7:0]$27 [0] }
(define-fun |sync_fifo#24#1| ((state |sync_fifo_s|)) (Array (_ BitVec 3) (_ BitVec 8)) (ite (= (|sync_fifo_m:W0M mem| state) #b00000000) (|sync_fifo#24#0| state) (store (|sync_fifo#24#0| state) (|sync_fifo_m:W0A mem| state) (bvor (bvand (|sync_fifo_m:W0D mem| state) (|sync_fifo_m:W0M mem| state)) (bvand (select (|sync_fifo#24#0| state) (|sync_fifo_m:W0A mem| state)) (bvnot (|sync_fifo_m:W0M mem| state))))))) ; mem
(define-fun |sync_fifo_a| ((state |sync_fifo_s|)) Bool true)
(define-fun |sync_fifo_u| ((state |sync_fifo_s|)) Bool 
  (|sync_fifo_u 0| state)
)
(define-fun |sync_fifo_i| ((state |sync_fifo_s|)) Bool true)
(define-fun |sync_fifo_h| ((state |sync_fifo_s|)) Bool true)
(define-fun |sync_fifo_t| ((state |sync_fifo_s|) (next_state |sync_fifo_s|)) Bool (and
  (= (|sync_fifo#18| state) (|sync_fifo#14| next_state)) ; $procdff$105 \wr_ptr
  (= (|sync_fifo#23| state) (|sync_fifo#10| next_state)) ; $procdff$106 \rd_ptr
  (= (|sync_fifo#27| state) (|sync_fifo#8| next_state)) ; $procdff$103 \rd_data
  (= (|sync_fifo#32| state) (|sync_fifo#5| next_state)) ; $procdff$104 \count
  (= (|sync_fifo#24#1| state) (|sync_fifo#24#0| next_state)) ; mem
)) ; end of module sync_fifo
; yosys-smt2-module formal_wrapper
(declare-sort |formal_wrapper_s| 0)
(declare-fun |formal_wrapper_is| (|formal_wrapper_s|) Bool)
; yosys-smt2-witness {"offset": 0, "path": ["\\_va_past_valid"], "smtname": 0, "smtoffset": 0, "type": "reg", "width": 1}
(declare-fun |formal_wrapper#0| (|formal_wrapper_s|) (_ BitVec 1)) ; \_va_past_valid
; yosys-smt2-register _va_past_valid 1
; yosys-smt2-wire _va_past_valid 1
(define-fun |formal_wrapper_n _va_past_valid| ((state |formal_wrapper_s|)) Bool (= ((_ extract 0 0) (|formal_wrapper#0| state)) #b1))
(declare-fun |formal_wrapper#1| (|formal_wrapper_s|) Bool) ; \clk
; yosys-smt2-input clk 1
; yosys-smt2-wire clk 1
; yosys-smt2-clock clk posedge
; yosys-smt2-witness {"offset": 0, "path": ["\\clk"], "smtname": "clk", "smtoffset": 0, "type": "posedge", "width": 1}
; yosys-smt2-witness {"offset": 0, "path": ["\\clk"], "smtname": "clk", "smtoffset": 0, "type": "input", "width": 1}
(define-fun |formal_wrapper_n clk| ((state |formal_wrapper_s|)) Bool (|formal_wrapper#1| state))
; yosys-smt2-cell sync_fifo u_dut
; yosys-smt2-witness {"path": ["\\u_dut"], "smtname": "u_dut", "type": "cell"}
(declare-fun |formal_wrapper#2| (|formal_wrapper_s|) (_ BitVec 4)) ; \count
(declare-fun |formal_wrapper#3| (|formal_wrapper_s|) Bool) ; \empty
(declare-fun |formal_wrapper#4| (|formal_wrapper_s|) Bool) ; \full
(declare-fun |formal_wrapper#5| (|formal_wrapper_s|) (_ BitVec 8)) ; \rd_data
(declare-fun |formal_wrapper_h u_dut| (|formal_wrapper_s|) |sync_fifo_s|)
; yosys-smt2-wire count 4
(define-fun |formal_wrapper_n count| ((state |formal_wrapper_s|)) (_ BitVec 4) (|formal_wrapper#2| state))
; yosys-smt2-wire empty 1
(define-fun |formal_wrapper_n empty| ((state |formal_wrapper_s|)) Bool (|formal_wrapper#3| state))
; yosys-smt2-wire full 1
(define-fun |formal_wrapper_n full| ((state |formal_wrapper_s|)) Bool (|formal_wrapper#4| state))
; yosys-smt2-wire rd_data 8
(define-fun |formal_wrapper_n rd_data| ((state |formal_wrapper_s|)) (_ BitVec 8) (|formal_wrapper#5| state))
; yosys-smt2-anyseq formal_wrapper#6 1 formal_wrapper.sv:8.23-8.28 rd_en
; yosys-smt2-witness {"offset": 0, "path": ["\\rd_en"], "smtname": 6, "smtoffset": 0, "type": "seq", "width": 1}
(declare-fun |formal_wrapper#6| (|formal_wrapper_s|) (_ BitVec 1)) ; \rd_en
; yosys-smt2-wire rd_en 1
(define-fun |formal_wrapper_n rd_en| ((state |formal_wrapper_s|)) Bool (= ((_ extract 0 0) (|formal_wrapper#6| state)) #b1))
(declare-fun |formal_wrapper#7| (|formal_wrapper_s|) Bool) ; \rst_n
; yosys-smt2-input rst_n 1
; yosys-smt2-wire rst_n 1
; yosys-smt2-witness {"offset": 0, "path": ["\\rst_n"], "smtname": "rst_n", "smtoffset": 0, "type": "input", "width": 1}
(define-fun |formal_wrapper_n rst_n| ((state |formal_wrapper_s|)) Bool (|formal_wrapper#7| state))
; yosys-smt2-anyseq formal_wrapper#8 8 formal_wrapper.sv:9.29-9.36 wr_data
; yosys-smt2-witness {"offset": 0, "path": ["\\wr_data"], "smtname": 8, "smtoffset": 0, "type": "seq", "width": 8}
(declare-fun |formal_wrapper#8| (|formal_wrapper_s|) (_ BitVec 8)) ; \wr_data
; yosys-smt2-wire wr_data 8
(define-fun |formal_wrapper_n wr_data| ((state |formal_wrapper_s|)) (_ BitVec 8) (|formal_wrapper#8| state))
; yosys-smt2-anyseq formal_wrapper#9 1 formal_wrapper.sv:7.23-7.28 wr_en
; yosys-smt2-witness {"offset": 0, "path": ["\\wr_en"], "smtname": 9, "smtoffset": 0, "type": "seq", "width": 1}
(declare-fun |formal_wrapper#9| (|formal_wrapper_s|) (_ BitVec 1)) ; \wr_en
; yosys-smt2-wire wr_en 1
(define-fun |formal_wrapper_n wr_en| ((state |formal_wrapper_s|)) Bool (= ((_ extract 0 0) (|formal_wrapper#9| state)) #b1))
(define-fun |formal_wrapper#10| ((state |formal_wrapper_s|)) (_ BitVec 1) (bvnot (ite (|formal_wrapper#1| state) #b1 #b0))) ; $auto$rtlil.cc:3255:Not$212
; yosys-smt2-assume 0 $auto$formalff.cc:987:execute$213
(define-fun |formal_wrapper_u 0| ((state |formal_wrapper_s|)) Bool (or (= ((_ extract 0 0) (|formal_wrapper#10| state)) #b1) (not true))) ; $auto$formalff.cc:987:execute$213
(define-fun |formal_wrapper#11| ((state |formal_wrapper_s|)) Bool (not (or  (|formal_wrapper#7| state) false))) ; $logic_not$formal_wrapper.sv:46$9_Y
(define-fun |formal_wrapper#12| ((state |formal_wrapper_s|)) (_ BitVec 1) (ite (= ((_ extract 0 0) (|formal_wrapper#0| state)) #b1) #b0 #b1)) ; $assume$formal_wrapper.sv:46$8_EN
; yosys-smt2-assume 1 _witness_.check_assume_formal_wrapper_sv_46_8 formal_wrapper.sv:46.13-46.27
(define-fun |formal_wrapper_u 1| ((state |formal_wrapper_s|)) Bool (or (|formal_wrapper#11| state) (not (= ((_ extract 0 0) (|formal_wrapper#12| state)) #b1)))) ; _witness_.check_assume_formal_wrapper_sv_46_8
; yosys-smt2-cell fifo_formal_checker u_monitor
; yosys-smt2-witness {"path": ["\\u_monitor"], "smtname": "u_monitor", "type": "cell"}
(declare-fun |formal_wrapper_h u_monitor| (|formal_wrapper_s|) |fifo_formal_checker_s|)
(define-fun |formal_wrapper_a| ((state |formal_wrapper_s|)) Bool (and
  (|fifo_formal_checker_a| (|formal_wrapper_h u_monitor| state))
  (|sync_fifo_a| (|formal_wrapper_h u_dut| state))
))
(define-fun |formal_wrapper_u| ((state |formal_wrapper_s|)) Bool (and
  (|formal_wrapper_u 0| state)
  (|formal_wrapper_u 1| state)
  (|fifo_formal_checker_u| (|formal_wrapper_h u_monitor| state))
  (|sync_fifo_u| (|formal_wrapper_h u_dut| state))
))
(define-fun |formal_wrapper_i| ((state |formal_wrapper_s|)) Bool (and
  (= (= ((_ extract 0 0) (|formal_wrapper#0| state)) #b1) false) ; _va_past_valid
  (|fifo_formal_checker_i| (|formal_wrapper_h u_monitor| state))
  (|sync_fifo_i| (|formal_wrapper_h u_dut| state))
))
(define-fun |formal_wrapper_h| ((state |formal_wrapper_s|)) Bool (and
  (= (|formal_wrapper_is| state) (|fifo_formal_checker_is| (|formal_wrapper_h u_monitor| state)))
  (= (|formal_wrapper#1| state) (|fifo_formal_checker_n clk| (|formal_wrapper_h u_monitor| state))) ; fifo_formal_checker.clk
  (= (|formal_wrapper#2| state) (|fifo_formal_checker_n count| (|formal_wrapper_h u_monitor| state))) ; fifo_formal_checker.count
  (= (|formal_wrapper#3| state) (|fifo_formal_checker_n empty| (|formal_wrapper_h u_monitor| state))) ; fifo_formal_checker.empty
  (= (|formal_wrapper#4| state) (|fifo_formal_checker_n full| (|formal_wrapper_h u_monitor| state))) ; fifo_formal_checker.full
  (= (= ((_ extract 0 0) (|formal_wrapper#6| state)) #b1) (|fifo_formal_checker_n rd_en| (|formal_wrapper_h u_monitor| state))) ; fifo_formal_checker.rd_en
  (= (|formal_wrapper#7| state) (|fifo_formal_checker_n rst_n| (|formal_wrapper_h u_monitor| state))) ; fifo_formal_checker.rst_n
  (= (= ((_ extract 0 0) (|formal_wrapper#9| state)) #b1) (|fifo_formal_checker_n wr_en| (|formal_wrapper_h u_monitor| state))) ; fifo_formal_checker.wr_en
  (= (|formal_wrapper_is| state) (|sync_fifo_is| (|formal_wrapper_h u_dut| state)))
  (= (|formal_wrapper#1| state) (|sync_fifo_n clk| (|formal_wrapper_h u_dut| state))) ; sync_fifo.clk
  (= (|formal_wrapper#2| state) (|sync_fifo_n count| (|formal_wrapper_h u_dut| state))) ; sync_fifo.count
  (= (|formal_wrapper#3| state) (|sync_fifo_n empty| (|formal_wrapper_h u_dut| state))) ; sync_fifo.empty
  (= (|formal_wrapper#4| state) (|sync_fifo_n full| (|formal_wrapper_h u_dut| state))) ; sync_fifo.full
  (= (|formal_wrapper#5| state) (|sync_fifo_n rd_data| (|formal_wrapper_h u_dut| state))) ; sync_fifo.rd_data
  (= (= ((_ extract 0 0) (|formal_wrapper#6| state)) #b1) (|sync_fifo_n rd_en| (|formal_wrapper_h u_dut| state))) ; sync_fifo.rd_en
  (= (|formal_wrapper#7| state) (|sync_fifo_n rst_n| (|formal_wrapper_h u_dut| state))) ; sync_fifo.rst_n
  (= (|formal_wrapper#8| state) (|sync_fifo_n wr_data| (|formal_wrapper_h u_dut| state))) ; sync_fifo.wr_data
  (= (= ((_ extract 0 0) (|formal_wrapper#9| state)) #b1) (|sync_fifo_n wr_en| (|formal_wrapper_h u_dut| state))) ; sync_fifo.wr_en
  (|fifo_formal_checker_h| (|formal_wrapper_h u_monitor| state))
  (|sync_fifo_h| (|formal_wrapper_h u_dut| state))
))
(define-fun |formal_wrapper_t| ((state |formal_wrapper_s|) (next_state |formal_wrapper_s|)) Bool (and
  (= #b1 (|formal_wrapper#0| next_state)) ; $procdff$110 \_va_past_valid
  (|fifo_formal_checker_t| (|formal_wrapper_h u_monitor| state) (|formal_wrapper_h u_monitor| next_state))
  (|sync_fifo_t| (|formal_wrapper_h u_dut| state) (|formal_wrapper_h u_dut| next_state))
)) ; end of module formal_wrapper
; yosys-smt2-topmod formal_wrapper
; end of yosys output
